Instance: E200-17c.dat
Class:  5
  199 --- number of customers (no depot)
   41 --- number of vehicles
  577 --- number of items
Capacity - height - width of vehicles
   200     40     20
Node - x - y - demand
    0    35.0    35.0     0.0
    1    22.0    22.0    18.0
    2    36.0    26.0    26.0
    3    21.0    45.0    11.0
    4    45.0    35.0    30.0
    5    55.0    20.0    21.0
    6    33.0    34.0    19.0
    7    50.0    50.0    15.0
    8    55.0    45.0    16.0
    9    26.0    59.0    29.0
   10    40.0    66.0    26.0
   11    55.0    65.0    37.0
   12    35.0    51.0    16.0
   13    62.0    35.0    12.0
   14    62.0    57.0    31.0
   15    62.0    24.0     8.0
   16    21.0    36.0    19.0
   17    33.0    44.0    20.0
   18     9.0    56.0    13.0
   19    62.0    48.0    15.0
   20    66.0    14.0    22.0
   21    44.0    13.0    28.0
   22    26.0    13.0    12.0
   23    11.0    28.0     6.0
   24     7.0    43.0    27.0
   25    17.0    64.0    14.0
   26    41.0    46.0    18.0
   27    55.0    34.0    17.0
   28    35.0    16.0    29.0
   29    52.0    26.0    13.0
   30    43.0    26.0    22.0
   31    31.0    76.0    25.0
   32    22.0    53.0    28.0
   33    26.0    29.0    27.0
   34    50.0    40.0    19.0
   35    55.0    50.0    10.0
   36    54.0    10.0    12.0
   37    60.0    15.0    14.0
   38    47.0    66.0    24.0
   39    30.0    60.0    16.0
   40    30.0    50.0    33.0
   41    12.0    17.0    15.0
   42    15.0    14.0    11.0
   43    16.0    19.0    18.0
   44    21.0    48.0    17.0
   45    50.0    30.0    21.0
   46    51.0    42.0    27.0
   47    50.0    15.0    19.0
   48    48.0    21.0    20.0
   49    12.0    38.0     5.0
   50    37.0    52.0     7.0
   51    49.0    49.0    30.0
   52    52.0    64.0    16.0
   53    20.0    26.0     9.0
   54    40.0    30.0    21.0
   55    21.0    47.0    15.0
   56    17.0    63.0    19.0
   57    31.0    62.0    23.0
   58    52.0    33.0    11.0
   59    51.0    21.0     5.0
   60    42.0    41.0    19.0
   61    31.0    32.0    29.0
   62     5.0    25.0    23.0
   63    12.0    42.0    21.0
   64    36.0    16.0    10.0
   65    52.0    41.0    15.0
   66    27.0    23.0     3.0
   67    17.0    33.0    41.0
   68    13.0    13.0     9.0
   69    57.0    58.0    28.0
   70    62.0    42.0     8.0
   71    42.0    57.0     8.0
   72    16.0    57.0    16.0
   73     8.0    52.0    10.0
   74     7.0    38.0    28.0
   75    27.0    68.0     7.0
   76    30.0    48.0    15.0
   77    43.0    67.0    14.0
   78    58.0    48.0     6.0
   79    58.0    27.0    19.0
   80    37.0    69.0    11.0
   81    38.0    46.0    12.0
   82    46.0    10.0    23.0
   83    61.0    33.0    26.0
   84    62.0    63.0    17.0
   85    63.0    69.0     6.0
   86    32.0    22.0     9.0
   87    45.0    35.0    15.0
   88    59.0    15.0    14.0
   89     5.0     6.0     7.0
   90    10.0    17.0    27.0
   91    21.0    10.0    13.0
   92     5.0    64.0    11.0
   93    30.0    15.0    16.0
   94    39.0    10.0    10.0
   95    32.0    39.0     5.0
   96    25.0    32.0    25.0
   97    25.0    55.0    17.0
   98    48.0    28.0    18.0
   99    56.0    37.0    10.0
  100    41.0    49.0    10.0
  101    35.0    17.0     7.0
  102    55.0    45.0    13.0
  103    55.0    20.0    19.0
  104    15.0    30.0    26.0
  105    25.0    30.0     3.0
  106    20.0    50.0     5.0
  107    10.0    43.0     9.0
  108    55.0    60.0    16.0
  109    30.0    60.0    16.0
  110    20.0    65.0    12.0
  111    50.0    35.0    19.0
  112    30.0    25.0    23.0
  113    15.0    10.0    20.0
  114    30.0     5.0     8.0
  115    10.0    20.0    19.0
  116     5.0    30.0     2.0
  117    20.0    40.0    12.0
  118    15.0    60.0    17.0
  119    45.0    65.0     9.0
  120    45.0    20.0    11.0
  121    45.0    10.0    18.0
  122    55.0     5.0    29.0
  123    65.0    35.0     3.0
  124    65.0    20.0     6.0
  125    45.0    30.0    17.0
  126    35.0    40.0    16.0
  127    41.0    37.0    16.0
  128    64.0    42.0     9.0
  129    40.0    60.0    21.0
  130    31.0    52.0    27.0
  131    35.0    69.0    23.0
  132    53.0    52.0    11.0
  133    65.0    55.0    14.0
  134    63.0    65.0     8.0
  135     2.0    60.0     5.0
  136    20.0    20.0     8.0
  137     5.0     5.0    16.0
  138    60.0    12.0    31.0
  139    40.0    25.0     9.0
  140    42.0     7.0     5.0
  141    24.0    12.0     5.0
  142    23.0     3.0     7.0
  143    11.0    14.0    18.0
  144     6.0    38.0    16.0
  145     2.0    48.0     1.0
  146     8.0    56.0    27.0
  147    13.0    52.0    36.0
  148     6.0    68.0    30.0
  149    47.0    47.0    13.0
  150    49.0    58.0    10.0
  151    27.0    43.0     9.0
  152    37.0    31.0    14.0
  153    57.0    29.0    18.0
  154    63.0    23.0     2.0
  155    53.0    12.0     6.0
  156    32.0    12.0     7.0
  157    36.0    26.0    18.0
  158    21.0    24.0    28.0
  159    17.0    34.0     3.0
  160    12.0    24.0    13.0
  161    24.0    58.0    19.0
  162    27.0    69.0    10.0
  163    15.0    77.0     9.0
  164    62.0    77.0    20.0
  165    49.0    73.0    25.0
  166    67.0     5.0    25.0
  167    56.0    39.0    36.0
  168    37.0    47.0     6.0
  169    37.0    56.0     5.0
  170    57.0    68.0    15.0
  171    47.0    16.0    25.0
  172    44.0    17.0     9.0
  173    46.0    13.0     8.0
  174    49.0    11.0    18.0
  175    49.0    42.0    13.0
  176    53.0    43.0    14.0
  177    61.0    52.0     3.0
  178    57.0    48.0    23.0
  179    56.0    37.0     6.0
  180    55.0    54.0    26.0
  181    15.0    47.0    16.0
  182    14.0    37.0    11.0
  183    11.0    31.0     7.0
  184    16.0    22.0    41.0
  185     4.0    18.0    35.0
  186    28.0    18.0    26.0
  187    26.0    52.0     9.0
  188    26.0    35.0    15.0
  189    31.0    67.0     3.0
  190    15.0    19.0     1.0
  191    22.0    22.0     2.0
  192    18.0    24.0    22.0
  193    26.0    27.0    27.0
  194    25.0    24.0    20.0
  195    22.0    27.0    11.0
  196    25.0    21.0    12.0
  197    19.0    21.0    10.0
  198    20.0    26.0     9.0
  199    18.0    18.0    17.0
Node - number of items - h - w for each item
    0   0
    1   3    4    9    8    4   21    3
    2   3   16    4    9    4    9    3
    3   2   11    5    9    4
    4   5   23    3   19    3   11    3    9    3    6    3
    5   5    8   12    6   11    4    9    8    5    9    2
    6   2    9    5    9    3
    7   4    6    8    9    5   19    3   10    3
    8   1   12    3
    9   2    6    4    7    2
   10   4    4    8    8    7    8    7   15    2
   11   1    5   11
   12   1   10    3
   13   4    6    8    7    5    8    4    7    3
   14   4    7    5   24    4    5    3   13    2
   15   2    8   10    5    2
   16   1   14    3
   17   1    7    8
   18   2    8    3    7    3
   19   3    6    6    7    3    4    2
   20   4    6   11    8    4   17    2    5    2
   21   1    9    2
   22   5    6   11   23    4   10    4    9    2    4    2
   23   3   17    4   11    4   20    3
   24   5    7   10    8    6    7    6    5    3   14    2
   25   3   15    3    8    2    5    2
   26   2    7    9    7    3
   27   2    6    3    4    3
   28   4    8   12    4   11    6    6    5    3
   29   1    8    8
   30   4    4   11   11    5    7    4   22    3
   31   5    6    9    4    8   20    4   15    3    4    2
   32   4   11    5    6    4   10    3    5    3
   33   2    6   11   11    3
   34   3    7    6    9    4    7    4
   35   1   10    3
   36   2   22    3   11    3
   37   4    5    8    7    6    5    4   22    2
   38   1    4    9
   39   3    6    5   11    3    7    3
   40   2    5    7    5    3
   41   4    8    5   22    3   12    3    9    2
   42   1   24    4
   43   1   11    4
   44   1    6    4
   45   2    8    5    7    3
   46   2   22    4   12    3
   47   3   21    3   13    3   11    2
   48   4    5    7    4    6    6    4   19    3
   49   1    4   10
   50   2    5    5   18    4
   51   2    6    6   18    2
   52   3   11    5    7    4    5    3
   53   5    8    5    4    4    7    3    6    3   22    2
   54   3    8    6   11    3    6    3
   55   4    7   12    6    8   10    6   21    3
   56   4    7    6   21    4   11    2    8    2
   57   1    9    4
   58   4    6   11    5    6    7    5   18    2
   59   4   13    4    6    4   20    3    6    3
   60   4    8    5   14    4   22    3   11    3
   61   4    4    6   23    4   12    4   23    3
   62   3   12    4   19    3    6    2
   63   3    4    4   18    3   10    3
   64   1    4   12
   65   1   11    2
   66   5    7    5   13    4    6    4   20    3    9    3
   67   5    5   11    4   10   11    4    8    3    6    3
   68   4    7   11    5    5    7    3   10    2
   69   3    6    8   12    6    6    3
   70   5    5    9    6    6    8    4    7    3    6    2
   71   3    5    6   24    4    6    4
   72   3    6    9   24    2   18    2
   73   2   15    4    6    3
   74   2   11    6    6    2
   75   2   20    3   10    3
   76   4    7    5   12    4    7    4   13    3
   77   1    5    6
   78   1    6    4
   79   2   12    4    5    3
   80   4    7    9    7    7    7    3    4    3
   81   1    8    3
   82   3    4    4   22    3    6    2
   83   5    5    6    8    5    7    4   11    3   14    2
   84   2   20    4    7    3
   85   1    7    8
   86   2    7    5   20    3
   87   1    6    6
   88   2    6    4   16    3
   89   3    7   11    5    7   17    3
   90   1    6    4
   91   2    9    4   19    3
   92   1    6   10
   93   4   11    5    7    5    6    4   13    2
   94   4    5   12    7    6    5    6   24    2
   95   4    8    7    8    4   23    3    8    3
   96   1    7    6
   97   5    6   10    5    7    7    4    5    4   11    3
   98   4    7    9   10    6   11    3   11    3
   99   4    4    6   23    2   22    2   16    2
  100   4    8   10    5   10    4   10   19    2
  101   2    5    5    9    2
  102   2   12    6    5    4
  103   2   12    4   11    3
  104   3   15    4   11    4   11    2
  105   1   13    3
  106   4    7    5   11    4    7    4    7    3
  107   4   14    4   14    3    5    3    6    2
  108   3   11    4    4    4    9    3
  109   2   22    4   17    4
  110   2    6    5    4    4
  111   4    7    9   16    4   14    4   10    2
  112   4    8   11   17    4    6    4   16    3
  113   2    8   12   11    5
  114   4    4    8    6    7   10    4   19    3
  115   2   20    4   15    4
  116   3    8    5   11    4    6    3
  117   5   21    4    7    3    4    3   20    2   11    2
  118   5    4   12    6   10    7    6    7    5   11    4
  119   2   11    5    8    5
  120   5    9    6    7    6   12    4    9    3    9    2
  121   1    7    3
  122   2    7    4    5    4
  123   5    7   11    6   11    6    6    9    5    6    4
  124   4    6   12   18    4    6    4    8    2
  125   4    6   12    8    6    7    4    7    3
  126   2   17    3   15    3
  127   1   12    3
  128   4    7    5   11    4    6    4    9    3
  129   1    6    3
  130   3   10    4   22    3   13    2
  131   5    7    7   12    4    8    4    6    4    4    4
  132   4    7    5    7    5    8    3   24    2
  133   5    7    5   18    3   16    3   16    3    5    3
  134   5    7    8    6    6   11    3   18    2    5    2
  135   1   11    5
  136   2   11    3   11    2
  137   2    8    9    9    4
  138   1   20    3
  139   1   11    3
  140   4    9    6   16    3   20    2   13    2
  141   2   21    3   18    2
  142   2    7    5   13    3
  143   5    5   12    7    8    4    8    7    5   13    4
  144   4   20    4    6    4   11    3   10    3
  145   1    7   11
  146   1    8    4
  147   2    5   10    7    6
  148   5    5    9   19    4    7    3    5    3    7    2
  149   5    7    8    6    5    8    4    7    4    8    3
  150   3    6    7    6    4   13    2
  151   1    5    4
  152   2    4   10    7    4
  153   4    6   10    5    9   15    4    5    2
  154   2    5    8    7    6
  155   5    7   10    8    5   22    4   21    3    6    2
  156   4    5   11    6    7    8    4    4    3
  157   3    8    5    7    4    7    3
  158   3    6    9    5    9   21    2
  159   3   10    6    5    5    4    4
  160   4    7   10    9    5    7    3    4    2
  161   3    7   10    8    5    7    3
  162   4    6    8    7    7   19    4    7    3
  163   2   23    3   23    2
  164   4    6    7    4    6   11    5    8    3
  165   1    9    4
  166   3   13    4    5    4   13    2
  167   5    5    9   20    4    7    4    6    3    4    3
  168   3    5    6   11    4    8    3
  169   4    5    9    4    8   20    4   15    2
  170   2    6    4   11    3
  171   2    8    4    6    3
  172   1    6    6
  173   5    5    8    4    5   17    2   11    2    6    2
  174   5   10    5   15    3   13    3    7    3    7    2
  175   4    6    5   10    4    6    4   22    3
  176   5    6    7   14    4    9    4    5    4   12    2
  177   3    5   11    6    6    8    5
  178   4    8    9    6    6    4    4   17    3
  179   5    8    7   22    3   16    3   14    3    4    2
  180   5    6   12    7   11    6    6   21    4    5    3
  181   4    8    4    8    3    5    2    4    2
  182   4    7   10    6    8    5    8    8    3
  183   2    5   10    8    4
  184   2    5    5   12    3
  185   1   16    3
  186   1   20    2
  187   2    5    5   12    3
  188   1   12    3
  189   5    7   10    8    9    8    8   13    3    9    3
  190   3    8    8   11    5   13    3
  191   3    6   11    8   10    5   10
  192   4    6   12    7    9    5    6    9    2
  193   2    5    4   19    3
  194   5    4    5   15    4   11    4    6    4   15    3
  195   2    7    4    7    3
  196   1    4    9
  197   2   10    4    6    3
  198   1    7   12
  199   5    5   11    7    6    4    6   17    3    9    3
